c Generated map
c Size: 12 * 12, weights in range: 1 to 10, walls: True, with ratio 0.05
c dim 5 of 5
c
p sp 144 237
c graph contains 144 nodes and 237 arcs
c
a 1 13 5
a 13 1 5
a 1 2 5
a 2 1 5
a 2 14 1
a 14 2 1
a 2 3 5
a 3 2 5
a 3 15 7
a 15 3 7
a 3 4 7
a 4 3 7
a 4 16 7
a 16 4 7
a 4 5 7
a 5 4 7
a 5 17 6
a 17 5 6
a 5 6 6
a 6 5 6
a 6 18 3
a 18 6 3
a 6 7 1
a 7 6 1
a 7 19 10
a 19 7 10
a 7 8 2
a 8 7 2
a 8 20 3
a 20 8 3
a 8 9 1
a 9 8 1
a 9 10 4
a 10 9 4
a 10 22 10
a 22 10 10
a 10 11 2
a 11 10 2
a 11 23 7
a 23 11 7
a 11 12 10
a 12 11 10
a 12 24 9
a 24 12 9
a 13 25 9
a 25 13 9
a 13 14 8
a 14 13 8
a 14 26 4
a 26 14 4
a 14 15 5
a 15 14 5
a 15 27 4
a 27 15 4
a 15 16 10
a 16 15 10
a 16 28 4
a 28 16 4
a 16 17 6
a 17 16 6
a 17 29 7
a 29 17 7
a 17 18 2
a 18 17 2
a 18 30 3
a 30 18 3
a 18 19 9
a 19 18 9
a 19 31 9
a 31 19 9
a 19 20 7
a 20 19 7
a 20 32 4
a 32 20 4
a 22 34 9
a 34 22 9
a 22 23 9
a 23 22 9
a 23 35 2
a 35 23 2
a 23 24 6
a 24 23 6
a 24 36 7
a 36 24 7
a 25 37 2
a 37 25 2
a 25 26 7
a 26 25 7
a 26 27 2
a 27 26 2
a 27 39 10
a 39 27 10
a 27 28 3
a 28 27 3
a 28 40 7
a 40 28 7
a 28 29 3
a 29 28 3
a 29 41 10
a 41 29 10
a 29 30 1
a 30 29 1
a 30 42 4
a 42 30 4
a 30 31 6
a 31 30 6
a 31 32 2
a 32 31 2
a 32 44 9
a 44 32 9
a 32 33 3
a 33 32 3
a 33 45 6
a 45 33 6
a 33 34 4
a 34 33 4
a 34 46 8
a 46 34 8
a 34 35 1
a 35 34 1
a 35 47 9
a 47 35 9
a 35 36 6
a 36 35 6
a 36 48 9
a 48 36 9
a 37 49 4
a 49 37 4
a 39 51 6
a 51 39 6
a 39 40 6
a 40 39 6
a 40 52 5
a 52 40 5
a 40 41 6
a 41 40 6
a 41 53 2
a 53 41 2
a 41 42 5
a 42 41 5
a 42 54 10
a 54 42 10
a 44 45 5
a 45 44 5
a 45 57 5
a 57 45 5
a 45 46 3
a 46 45 3
a 46 58 5
a 58 46 5
a 46 47 7
a 47 46 7
a 47 59 2
a 59 47 2
a 47 48 10
a 48 47 10
a 48 60 8
a 60 48 8
a 49 61 3
a 61 49 3
a 49 50 7
a 50 49 7
a 50 62 7
a 62 50 7
a 50 51 9
a 51 50 9
a 51 63 1
a 63 51 1
a 51 52 8
a 52 51 8
a 52 64 5
a 64 52 5
a 52 53 6
a 53 52 6
a 53 65 3
a 65 53 3
a 53 54 4
a 54 53 4
a 54 66 7
a 66 54 7
a 54 55 4
a 55 54 4
a 55 67 9
a 67 55 9
a 57 69 3
a 69 57 3
a 57 58 2
a 58 57 2
a 58 59 1
a 59 58 1
a 59 71 6
a 71 59 6
a 59 60 4
a 60 59 4
a 60 72 6
a 72 60 6
a 61 73 5
a 73 61 5
a 61 62 10
a 62 61 10
a 62 74 3
a 74 62 3
a 62 63 9
a 63 62 9
a 63 75 4
a 75 63 4
a 63 64 6
a 64 63 6
a 64 76 1
a 76 64 1
a 64 65 8
a 65 64 8
a 65 77 10
a 77 65 10
a 65 66 9
a 66 65 9
a 66 78 8
a 78 66 8
a 66 67 4
a 67 66 4
a 67 79 2
a 79 67 2
a 67 68 3
a 68 67 3
a 68 80 8
a 80 68 8
a 68 69 7
a 69 68 7
a 71 83 3
a 83 71 3
a 71 72 6
a 72 71 6
a 72 84 7
a 84 72 7
a 73 85 3
a 85 73 3
a 73 74 3
a 74 73 3
a 74 86 10
a 86 74 10
a 74 75 1
a 75 74 1
a 75 87 10
a 87 75 10
a 75 76 3
a 76 75 3
a 76 88 7
a 88 76 7
a 76 77 1
a 77 76 1
a 77 89 3
a 89 77 3
a 77 78 5
a 78 77 5
a 78 90 6
a 90 78 6
a 78 79 3
a 79 78 3
a 79 91 4
a 91 79 4
a 79 80 2
a 80 79 2
a 80 92 4
a 92 80 4
a 82 94 5
a 94 82 5
a 82 83 1
a 83 82 1
a 83 95 6
a 95 83 6
a 83 84 2
a 84 83 2
a 85 97 5
a 97 85 5
a 85 86 6
a 86 85 6
a 86 98 9
a 98 86 9
a 86 87 8
a 87 86 8
a 87 99 4
a 99 87 4
a 87 88 9
a 88 87 9
a 88 100 9
a 100 88 9
a 88 89 1
a 89 88 1
a 89 101 5
a 101 89 5
a 89 90 2
a 90 89 2
a 90 102 4
a 102 90 4
a 90 91 3
a 91 90 3
a 91 103 8
a 103 91 8
a 91 92 10
a 92 91 10
a 92 104 2
a 104 92 2
a 92 93 7
a 93 92 7
a 93 105 4
a 105 93 4
a 93 94 9
a 94 93 9
a 94 106 8
a 106 94 8
a 94 95 9
a 95 94 9
a 95 107 8
a 107 95 8
a 97 109 3
a 109 97 3
a 97 98 1
a 98 97 1
a 98 110 2
a 110 98 2
a 98 99 7
a 99 98 7
a 99 111 1
a 111 99 1
a 99 100 4
a 100 99 4
a 100 112 2
a 112 100 2
a 100 101 9
a 101 100 9
a 101 113 2
a 113 101 2
a 101 102 3
a 102 101 3
a 102 114 4
a 114 102 4
a 102 103 8
a 103 102 8
a 103 115 10
a 115 103 10
a 103 104 2
a 104 103 2
a 104 116 1
a 116 104 1
a 104 105 10
a 105 104 10
a 105 117 9
a 117 105 9
a 105 106 1
a 106 105 1
a 106 118 8
a 118 106 8
a 106 107 9
a 107 106 9
a 107 119 4
a 119 107 4
a 107 108 6
a 108 107 6
a 108 120 6
a 120 108 6
a 109 121 2
a 121 109 2
a 109 110 9
a 110 109 9
a 110 122 6
a 122 110 6
a 110 111 5
a 111 110 5
a 111 123 7
a 123 111 7
a 111 112 4
a 112 111 4
a 112 124 2
a 124 112 2
a 112 113 2
a 113 112 2
a 113 125 3
a 125 113 3
a 113 114 4
a 114 113 4
a 114 126 7
a 126 114 7
a 114 115 3
a 115 114 3
a 115 127 1
a 127 115 1
a 115 116 9
a 116 115 9
a 116 128 6
a 128 116 6
a 116 117 5
a 117 116 5
a 117 129 5
a 129 117 5
a 117 118 8
a 118 117 8
a 118 130 7
a 130 118 7
a 118 119 2
a 119 118 2
a 119 131 6
a 131 119 6
a 119 120 2
a 120 119 2
a 120 132 4
a 132 120 4
a 121 133 5
a 133 121 5
a 121 122 6
a 122 121 6
a 122 134 7
a 134 122 7
a 122 123 3
a 123 122 3
a 123 135 8
a 135 123 8
a 123 124 1
a 124 123 1
a 124 136 7
a 136 124 7
a 124 125 1
a 125 124 1
a 125 137 9
a 137 125 9
a 125 126 7
a 126 125 7
a 126 138 4
a 138 126 4
a 126 127 5
a 127 126 5
a 127 139 6
a 139 127 6
a 127 128 4
a 128 127 4
a 128 140 9
a 140 128 9
a 128 129 4
a 129 128 4
a 129 141 2
a 141 129 2
a 129 130 9
a 130 129 9
a 130 142 8
a 142 130 8
a 130 131 1
a 131 130 1
a 131 143 8
a 143 131 8
a 131 132 2
a 132 131 2
a 132 144 4
a 144 132 4
a 133 134 1
a 134 133 1
a 134 135 3
a 135 134 3
a 135 136 7
a 136 135 7
a 136 137 9
a 137 136 9
a 137 138 5
a 138 137 5
a 138 139 8
a 139 138 8
a 139 140 8
a 140 139 8
a 140 141 5
a 141 140 5
a 141 142 8
a 142 141 8
a 142 143 6
a 143 142 6
a 143 144 4
a 144 143 4
